DIMENSION: 8
EDGE_WEIGHT_TYPE: EXPLICIT
EDGE_WEIGHT_FORMAT: FULL_MATRIX
EDGE_WEIGHT_SECTION:
32767 32767 75 32767 32767 32767 85 32767 
32767 32767 32767 75 80 32767 32767 32767 
75 32767 32767 32767 32767 32767 79 19 
32767 75 32767 32767 32767 32767 49 32767 
32767 80 32767 32767 32767 69 32767 43 
32767 32767 32767 32767 69 32767 32767 32767 
85 32767 79 49 32767 32767 32767 23 
32767 32767 19 32767 43 32767 23 32767 
EOF